(set-logic QF_UF)
(declare-fun A1 () Bool)
(declare-fun A2 () Bool)
(declare-fun A3 () Bool)
(declare-fun A4 () Bool)
(declare-fun A5 () Bool)
(declare-fun A6 () Bool)
(declare-fun A7 () Bool)
(declare-fun A8 () Bool)
(declare-fun A9 () Bool)
(declare-fun A10 () Bool)
(declare-fun A11 () Bool)
(declare-fun A12 () Bool)
(declare-fun A13 () Bool)
(declare-fun A14 () Bool)
(declare-fun A17 () Bool)
(declare-fun A18 () Bool)
(declare-fun A19 () Bool)
(declare-fun A20 () Bool)
(declare-fun A21 () Bool)
(declare-fun A22 () Bool)
(declare-fun A23 () Bool)
(declare-fun A24 () Bool)
(assert (let ((.def_0 (not A9))) (let ((.def_1 (and .def_0 A1))) (let ((.def_2 (not A6))) (let ((.def_3 (and .def_2 A14))) (let ((.def_4 (not .def_3))) (let ((.def_5 (or .def_4 .def_1))) (let ((.def_6 (not A5))) (let ((.def_7 (and A13 .def_6))) (let ((.def_8 (not .def_7))) (let ((.def_9 (not A8))) (let ((.def_10 (and .def_9 A1))) (let ((.def_11 (and .def_10 .def_8))) (let ((.def_12 (not .def_11))) (let ((.def_13 (and .def_12 .def_5))) (let ((.def_14 (not A19))) (let ((.def_15 (or A19 .def_14))) (let ((.def_16 (not A13))) (let ((.def_17 (or A8 .def_16))) (let ((.def_18 (not .def_17))) (let ((.def_19 (and .def_18 .def_15))) (let ((.def_20 (not A10))) (let ((.def_21 (and .def_20 A7))) (let ((.def_22 (not .def_21))) (let ((.def_23 (not A24))) (let ((.def_24 (and A1 .def_23))) (let ((.def_25 (or .def_24 .def_22))) (let ((.def_26 (not .def_25))) (let ((.def_27 (or .def_26 .def_19))) (let ((.def_28 (and .def_27 .def_13))) (let ((.def_29 (not .def_28))) (let ((.def_30 (and .def_20 A5))) (let ((.def_31 (or .def_23 A12))) (let ((.def_32 (and .def_31 .def_30))) (let ((.def_33 (and A22 .def_23))) (let ((.def_34 (not .def_33))) (let ((.def_35 (not A18))) (let ((.def_36 (and .def_35 .def_6))) (let ((.def_37 (not .def_36))) (let ((.def_38 (and .def_37 .def_34))) (let ((.def_39 (not .def_38))) (let ((.def_40 (= .def_39 .def_32))) (let ((.def_41 (not .def_40))) (let ((.def_42 (not A17))) (let ((.def_43 (and .def_42 A1))) (let ((.def_44 (not .def_43))) (let ((.def_45 (= A10 A13))) (let ((.def_46 (not .def_45))) (let ((.def_47 (and .def_46 .def_44))) (let ((.def_48 (not A23))) (let ((.def_49 (or .def_48 .def_2))) (let ((.def_50 (not .def_49))) (let ((.def_51 (and .def_42 .def_0))) (let ((.def_52 (and .def_51 .def_50))) (let ((.def_53 (not .def_52))) (let ((.def_54 (and .def_53 .def_47))) (let ((.def_55 (not .def_54))) (let ((.def_56 (and .def_55 .def_41))) (let ((.def_57 (or .def_56 .def_29))) (let ((.def_58 (not .def_57))) (let ((.def_59 (and .def_48 .def_16))) (let ((.def_60 (not .def_59))) (let ((.def_61 (and .def_0 A24))) (let ((.def_62 (not .def_61))) (let ((.def_63 (and .def_62 .def_60))) (let ((.def_64 (not .def_63))) (let ((.def_65 (and A10 A17))) (let ((.def_66 (not .def_65))) (let ((.def_67 (and A22 A2))) (let ((.def_68 (not .def_67))) (let ((.def_69 (and .def_68 .def_66))) (let ((.def_70 (or .def_69 .def_64))) (let ((.def_71 (or .def_14 .def_9))) (let ((.def_72 (not .def_71))) (let ((.def_73 (not A21))) (let ((.def_74 (and A6 .def_73))) (let ((.def_75 (and .def_74 .def_72))) (let ((.def_76 (not .def_75))) (let ((.def_77 (and A3 A7))) (let ((.def_78 (not A20))) (let ((.def_79 (and .def_78 A9))) (let ((.def_80 (not .def_79))) (let ((.def_81 (and .def_80 .def_77))) (let ((.def_82 (not .def_81))) (let ((.def_83 (or .def_82 .def_76))) (let ((.def_84 (or .def_83 .def_70))) (let ((.def_85 (not A7))) (let ((.def_86 (and A11 .def_85))) (let ((.def_87 (not .def_86))) (let ((.def_88 (or .def_23 .def_85))) (let ((.def_89 (not .def_88))) (let ((.def_90 (and .def_89 .def_87))) (let ((.def_91 (not .def_90))) (let ((.def_92 (= .def_20 A3))) (let ((.def_93 (not .def_92))) (let ((.def_94 (not A22))) (let ((.def_95 (and .def_94 A18))) (let ((.def_96 (or .def_95 .def_93))) (let ((.def_97 (or .def_96 .def_91))) (let ((.def_98 (not .def_97))) (let ((.def_99 (not A11))) (let ((.def_100 (or .def_99 A4))) (let ((.def_101 (not .def_100))) (let ((.def_102 (not A12))) (let ((.def_103 (and .def_102 A2))) (let ((.def_104 (not .def_103))) (let ((.def_105 (and .def_104 .def_101))) (let ((.def_106 (not .def_105))) (let ((.def_107 (or .def_48 .def_16))) (let ((.def_108 (or A11 .def_94))) (let ((.def_109 (not .def_108))) (let ((.def_110 (or .def_109 .def_107))) (let ((.def_111 (and .def_110 .def_106))) (let ((.def_112 (or .def_111 .def_98))) (let ((.def_113 (not .def_112))) (let ((.def_114 (or .def_113 .def_84))) (let ((.def_115 (not .def_114))) (let ((.def_116 (and .def_115 .def_58))) .def_116))))))))))))))))))))))))))))))))))))))))))))))))))))))))))))))))))))))))))))))))))))))))))))))))))))))))))))))))))))))
(check-sat)
